(set-info :smt-lib-version 2.6)
(set-logic QF_BV)
(set-info :source |
 Patrice Godefroid, SAGE (systematic dynamic test generation)
 For more information: http://research.microsoft.com/en-us/um/people/pg/public_psfiles/ndss2008.pdf
|)
(set-info :category "industrial")
(set-info :status sat)
(declare-fun T2_677 () (_ BitVec 16))
(declare-fun T2_737 () (_ BitVec 16))
(declare-fun T1_737 () (_ BitVec 8))
(declare-fun T1_738 () (_ BitVec 8))
(declare-fun T1_677 () (_ BitVec 8))
(declare-fun T1_678 () (_ BitVec 8))
(assert (and true (= T2_677 (bvor (bvshl ((_ zero_extend 8) T1_678) (_ bv8 16)) ((_ zero_extend 8) T1_677))) (= T2_737 (bvor (bvshl ((_ zero_extend 8) T1_738) (_ bv8 16)) ((_ zero_extend 8) T1_737))) (not (= T2_677 T2_737)) (not (= T2_737 (_ bv0 16))) (not (= T2_677 (_ bv0 16)))))
(check-sat)
(exit)
